nNurses = 151;
nHours = 28;
minHours = 9;
maxHours = 13;
maxConsec = 6;
maxPresence = 18;
demand = [10, 5, 6, 10, 9, 13, 13, 10, 7, 12, 16, 19, 15, 13, 16, 19, 18, 13, 14, 12, 15, 12, 14, 18, 20, 20, 24, 27];
